Minimize
  obj: x0 + x1 + x2 + x3 + x4 + x5

Subject To
  c0: x0 + x3 + x5 = 30
  c1: x2 + x3 + x4 + x5 = 31
  c2: x3 = 10
  c3: x1 + x2 = 21

Bounds
  x0 >= 0
  x1 >= 0
  x2 >= 0
  x3 >= 0
  x4 >= 0
  x5 >= 0

Generals
  x0 x1 x2 x3 x4 x5

End
